CapLotSizing_PM/src/Instancias/NCHSHT/6i18p2m/NBA01.OUT
 CG ITER, OVMR, OVMRUB =           1   41948.8046875   41948.8046875
 CG ITER, OVMR, OVMRUB =           2   39392.0000000   39392.0000000
 CG ITER, OVMR, OVMRUB =           3   39392.0000000   39392.0000000
 CG ITER, OVMR, OVMRUB =           4   39392.0039062   39392.0000000
 CG ITER, OVMR, OVMRUB =           5   35167.7109375   39392.0000000
 CG ITER, OVMR, OVMRUB =           6   35994.7304688   39392.0000000
 CG ITER, OVMR, OVMRUB =           7   36687.4765625   39392.0000000
 CG ITER, OVMR, OVMRUB =           8   37540.9687500   39392.0000000
 CG ITER, OVMR, OVMRUB =           9   34390.1210938   39392.0000000
 CG ITER, OVMR, OVMRUB =          10   34458.2695312   39392.0000000
 CG ITER, OVMR, OVMRUB =          11   34585.8828125   39392.0000000
 CG ITER, OVMR, OVMRUB =          12   34692.0351562   39392.0000000
 CG ITER, OVMR, OVMRUB =          13   34766.0078125   39392.0000000
 CG ITER, OVMR, OVMRUB =          14   34828.4140625   39392.0000000
 CG ITER, OVMR, OVMRUB =          15   34872.5390625   38791.9023438
 CG ITER, OVMR, OVMRUB =          16   34899.2226562   38791.9023438
 CG ITER, OVMR, OVMRUB =          17   34937.0117188   38791.9023438
 CG ITER, OVMR, OVMRUB =          18   34970.5234375   38791.9023438
 CG ITER, OVMR, OVMRUB =          19   34986.7734375   38791.9023438
 CG ITER, OVMR, OVMRUB =          20   35011.6992188   38791.9023438
 CG ITER, OVMR, OVMRUB =          21   35031.6210938   38791.9023438
 CG ITER, OVMR, OVMRUB =          22   35049.4687500   38791.9023438
 CG ITER, OVMR, OVMRUB =          23   35059.0234375   38791.9023438
 CG ITER, OVMR, OVMRUB =          24   35067.0117188   38791.9023438
 CG ITER, OVMR, OVMRUB =          25   35076.0312500   38791.9023438
 CG ITER, OVMR, OVMRUB =          26   35085.2734375   38791.9023438
 CG ITER, OVMR, OVMRUB =          27   35091.2695312   38791.9023438
 CG ITER, OVMR, OVMRUB =          28   35095.2226562   38791.9023438
 CG ITER, OVMR, OVMRUB =          29   35112.1992188   38791.9023438
 CG ITER, OVMR, OVMRUB =          30   35089.7812500   38791.9023438
 CG ITER, OVMR, OVMRUB =          31   35091.6406250   38791.9023438
 CG ITER, OVMR, OVMRUB =          32   35088.0117188   38791.9023438
 CG ITER, OVMR, OVMRUB =          33   35089.5742188   38791.9023438
 CG ITER, OVMR, OVMRUB =          34   35089.8906250   37848.6132812
 CG ITER, OVMR, OVMRUB =          35   35090.4375000   37848.6132812
 CG ITER, OVMR, OVMRUB =          36   35094.2656250   37848.6132812
 CG ITER, OVMR, OVMRUB =          37   35094.2656250   37848.6132812
OVLB =   35094.2656250 OVLUB =   37848.6132812 TIME =       2.6400001
